; benchmark generated from python API
(set-info :status unknown)
(declare-fun cell_1_1 () Int)
(declare-fun cell_2_8 () Int)
(declare-fun cell_3_4 () Int)
(declare-fun cell_2_1 () Int)
(declare-fun cell_3_1 () Int)
(declare-fun cell_4_1 () Int)
(declare-fun cell_5_1 () Int)
(declare-fun cell_6_1 () Int)
(declare-fun cell_7_1 () Int)
(declare-fun cell_8_1 () Int)
(declare-fun cell_9_1 () Int)
(declare-fun cell_1_2 () Int)
(declare-fun cell_2_2 () Int)
(declare-fun cell_3_2 () Int)
(declare-fun cell_4_2 () Int)
(declare-fun cell_5_2 () Int)
(declare-fun cell_6_2 () Int)
(declare-fun cell_7_2 () Int)
(declare-fun cell_8_2 () Int)
(declare-fun cell_9_2 () Int)
(declare-fun cell_1_3 () Int)
(declare-fun cell_2_3 () Int)
(declare-fun cell_3_3 () Int)
(declare-fun cell_4_3 () Int)
(declare-fun cell_5_3 () Int)
(declare-fun cell_6_3 () Int)
(declare-fun cell_7_3 () Int)
(declare-fun cell_8_3 () Int)
(declare-fun cell_9_3 () Int)
(declare-fun cell_1_4 () Int)
(declare-fun cell_2_4 () Int)
(declare-fun cell_4_4 () Int)
(declare-fun cell_5_4 () Int)
(declare-fun cell_6_4 () Int)
(declare-fun cell_7_4 () Int)
(declare-fun cell_8_4 () Int)
(declare-fun cell_9_4 () Int)
(declare-fun cell_1_5 () Int)
(declare-fun cell_2_5 () Int)
(declare-fun cell_3_5 () Int)
(declare-fun cell_4_5 () Int)
(declare-fun cell_5_5 () Int)
(declare-fun cell_6_5 () Int)
(declare-fun cell_7_5 () Int)
(declare-fun cell_8_5 () Int)
(declare-fun cell_9_5 () Int)
(declare-fun cell_1_6 () Int)
(declare-fun cell_2_6 () Int)
(declare-fun cell_3_6 () Int)
(declare-fun cell_4_6 () Int)
(declare-fun cell_5_6 () Int)
(declare-fun cell_6_6 () Int)
(declare-fun cell_7_6 () Int)
(declare-fun cell_8_6 () Int)
(declare-fun cell_9_6 () Int)
(declare-fun cell_1_7 () Int)
(declare-fun cell_2_7 () Int)
(declare-fun cell_3_7 () Int)
(declare-fun cell_4_7 () Int)
(declare-fun cell_5_7 () Int)
(declare-fun cell_6_7 () Int)
(declare-fun cell_7_7 () Int)
(declare-fun cell_8_7 () Int)
(declare-fun cell_9_7 () Int)
(declare-fun cell_1_8 () Int)
(declare-fun cell_3_8 () Int)
(declare-fun cell_4_8 () Int)
(declare-fun cell_5_8 () Int)
(declare-fun cell_6_8 () Int)
(declare-fun cell_7_8 () Int)
(declare-fun cell_8_8 () Int)
(declare-fun cell_9_8 () Int)
(declare-fun cell_1_9 () Int)
(declare-fun cell_2_9 () Int)
(declare-fun cell_3_9 () Int)
(declare-fun cell_4_9 () Int)
(declare-fun cell_5_9 () Int)
(declare-fun cell_6_9 () Int)
(declare-fun cell_7_9 () Int)
(declare-fun cell_8_9 () Int)
(declare-fun cell_9_9 () Int)
(assert
 (= cell_1_1 1))
(assert
 (= cell_2_8 1))
(assert
 (= cell_3_4 1))
(assert
 (let (($x3327 (= cell_1_1 1)))
 (or $x3327 (= cell_1_1 2) (= cell_1_1 3) (= cell_1_1 4) (= cell_1_1 5) (= cell_1_1 6) (= cell_1_1 7) (= cell_1_1 8) (= cell_1_1 9))))
(assert
 (let (($x3556 (= cell_2_1 9)))
 (let (($x8839 (= cell_2_1 8)))
 (let (($x7195 (= cell_2_1 7)))
 (let (($x6050 (= cell_2_1 6)))
 (let (($x4950 (= cell_2_1 5)))
 (let (($x6509 (= cell_2_1 4)))
 (let (($x8296 (= cell_2_1 3)))
 (let (($x7595 (= cell_2_1 2)))
 (let (($x4639 (= cell_2_1 1)))
 (or $x4639 $x7595 $x8296 $x6509 $x4950 $x6050 $x7195 $x8839 $x3556)))))))))))
(assert
 (let (($x4250 (= cell_3_1 9)))
 (let (($x2887 (= cell_3_1 8)))
 (let (($x178 (= cell_3_1 7)))
 (let (($x5237 (= cell_3_1 6)))
 (let (($x2979 (= cell_3_1 5)))
 (let (($x1913 (= cell_3_1 4)))
 (let (($x1964 (= cell_3_1 3)))
 (let (($x8222 (= cell_3_1 2)))
 (let (($x7534 (= cell_3_1 1)))
 (or $x7534 $x8222 $x1964 $x1913 $x2979 $x5237 $x178 $x2887 $x4250)))))))))))
(assert
 (let (($x3229 (= cell_4_1 1)))
 (or $x3229 (= cell_4_1 2) (= cell_4_1 3) (= cell_4_1 4) (= cell_4_1 5) (= cell_4_1 6) (= cell_4_1 7) (= cell_4_1 8) (= cell_4_1 9))))
(assert
 (let (($x5505 (= cell_5_1 1)))
 (or $x5505 (= cell_5_1 2) (= cell_5_1 3) (= cell_5_1 4) (= cell_5_1 5) (= cell_5_1 6) (= cell_5_1 7) (= cell_5_1 8) (= cell_5_1 9))))
(assert
 (let (($x8949 (= cell_6_1 1)))
 (or $x8949 (= cell_6_1 2) (= cell_6_1 3) (= cell_6_1 4) (= cell_6_1 5) (= cell_6_1 6) (= cell_6_1 7) (= cell_6_1 8) (= cell_6_1 9))))
(assert
 (let (($x3103 (= cell_7_1 1)))
 (or $x3103 (= cell_7_1 2) (= cell_7_1 3) (= cell_7_1 4) (= cell_7_1 5) (= cell_7_1 6) (= cell_7_1 7) (= cell_7_1 8) (= cell_7_1 9))))
(assert
 (let (($x4996 (= cell_8_1 1)))
 (or $x4996 (= cell_8_1 2) (= cell_8_1 3) (= cell_8_1 4) (= cell_8_1 5) (= cell_8_1 6) (= cell_8_1 7) (= cell_8_1 8) (= cell_8_1 9))))
(assert
 (let (($x2883 (= cell_9_1 1)))
 (or $x2883 (= cell_9_1 2) (= cell_9_1 3) (= cell_9_1 4) (= cell_9_1 5) (= cell_9_1 6) (= cell_9_1 7) (= cell_9_1 8) (= cell_9_1 9))))
(assert
 (let (($x1862 (= cell_1_2 9)))
 (let (($x128 (= cell_1_2 8)))
 (let (($x2691 (= cell_1_2 7)))
 (let (($x7494 (= cell_1_2 6)))
 (let (($x187 (= cell_1_2 5)))
 (let (($x9583 (= cell_1_2 4)))
 (let (($x2347 (= cell_1_2 3)))
 (let (($x9384 (= cell_1_2 2)))
 (let (($x10083 (= cell_1_2 1)))
 (or $x10083 $x9384 $x2347 $x9583 $x187 $x7494 $x2691 $x128 $x1862)))))))))))
(assert
 (let (($x1427 (= cell_2_2 9)))
 (let (($x9936 (= cell_2_2 8)))
 (let (($x7085 (= cell_2_2 7)))
 (let (($x2933 (= cell_2_2 6)))
 (let (($x1361 (= cell_2_2 5)))
 (let (($x3112 (= cell_2_2 4)))
 (let (($x189 (= cell_2_2 3)))
 (let (($x596 (= cell_2_2 2)))
 (let (($x6650 (= cell_2_2 1)))
 (or $x6650 $x596 $x189 $x3112 $x1361 $x2933 $x7085 $x9936 $x1427)))))))))))
(assert
 (let (($x2292 (= cell_3_2 9)))
 (let (($x10050 (= cell_3_2 8)))
 (let (($x9163 (= cell_3_2 7)))
 (let (($x2647 (= cell_3_2 6)))
 (let (($x2282 (= cell_3_2 5)))
 (let (($x1290 (= cell_3_2 4)))
 (let (($x4101 (= cell_3_2 3)))
 (let (($x7297 (= cell_3_2 2)))
 (let (($x1609 (= cell_3_2 1)))
 (or $x1609 $x7297 $x4101 $x1290 $x2282 $x2647 $x9163 $x10050 $x2292)))))))))))
(assert
 (or (= cell_4_2 1) (= cell_4_2 2) (= cell_4_2 3) (= cell_4_2 4) (= cell_4_2 5) (= cell_4_2 6) (= cell_4_2 7) (= cell_4_2 8) (= cell_4_2 9)))
(assert
 (or (= cell_5_2 1) (= cell_5_2 2) (= cell_5_2 3) (= cell_5_2 4) (= cell_5_2 5) (= cell_5_2 6) (= cell_5_2 7) (= cell_5_2 8) (= cell_5_2 9)))
(assert
 (or (= cell_6_2 1) (= cell_6_2 2) (= cell_6_2 3) (= cell_6_2 4) (= cell_6_2 5) (= cell_6_2 6) (= cell_6_2 7) (= cell_6_2 8) (= cell_6_2 9)))
(assert
 (or (= cell_7_2 1) (= cell_7_2 2) (= cell_7_2 3) (= cell_7_2 4) (= cell_7_2 5) (= cell_7_2 6) (= cell_7_2 7) (= cell_7_2 8) (= cell_7_2 9)))
(assert
 (or (= cell_8_2 1) (= cell_8_2 2) (= cell_8_2 3) (= cell_8_2 4) (= cell_8_2 5) (= cell_8_2 6) (= cell_8_2 7) (= cell_8_2 8) (= cell_8_2 9)))
(assert
 (or (= cell_9_2 1) (= cell_9_2 2) (= cell_9_2 3) (= cell_9_2 4) (= cell_9_2 5) (= cell_9_2 6) (= cell_9_2 7) (= cell_9_2 8) (= cell_9_2 9)))
(assert
 (let (($x9368 (= cell_1_3 1)))
 (or $x9368 (= cell_1_3 2) (= cell_1_3 3) (= cell_1_3 4) (= cell_1_3 5) (= cell_1_3 6) (= cell_1_3 7) (= cell_1_3 8) (= cell_1_3 9))))
(assert
 (let (($x6664 (= cell_2_3 9)))
 (let (($x639 (= cell_2_3 8)))
 (let (($x3408 (= cell_2_3 7)))
 (let (($x1086 (= cell_2_3 6)))
 (let (($x5417 (= cell_2_3 5)))
 (let (($x9225 (= cell_2_3 4)))
 (let (($x5363 (= cell_2_3 3)))
 (let (($x7888 (= cell_2_3 2)))
 (let (($x5691 (= cell_2_3 1)))
 (or $x5691 $x7888 $x5363 $x9225 $x5417 $x1086 $x3408 $x639 $x6664)))))))))))
(assert
 (let (($x6483 (= cell_3_3 9)))
 (let (($x1755 (= cell_3_3 8)))
 (let (($x2613 (= cell_3_3 7)))
 (let (($x3694 (= cell_3_3 6)))
 (let (($x5765 (= cell_3_3 5)))
 (let (($x2312 (= cell_3_3 4)))
 (let (($x8292 (= cell_3_3 3)))
 (let (($x2348 (= cell_3_3 2)))
 (let (($x57 (= cell_3_3 1)))
 (or $x57 $x2348 $x8292 $x2312 $x5765 $x3694 $x2613 $x1755 $x6483)))))))))))
(assert
 (or (= cell_4_3 1) (= cell_4_3 2) (= cell_4_3 3) (= cell_4_3 4) (= cell_4_3 5) (= cell_4_3 6) (= cell_4_3 7) (= cell_4_3 8) (= cell_4_3 9)))
(assert
 (or (= cell_5_3 1) (= cell_5_3 2) (= cell_5_3 3) (= cell_5_3 4) (= cell_5_3 5) (= cell_5_3 6) (= cell_5_3 7) (= cell_5_3 8) (= cell_5_3 9)))
(assert
 (or (= cell_6_3 1) (= cell_6_3 2) (= cell_6_3 3) (= cell_6_3 4) (= cell_6_3 5) (= cell_6_3 6) (= cell_6_3 7) (= cell_6_3 8) (= cell_6_3 9)))
(assert
 (or (= cell_7_3 1) (= cell_7_3 2) (= cell_7_3 3) (= cell_7_3 4) (= cell_7_3 5) (= cell_7_3 6) (= cell_7_3 7) (= cell_7_3 8) (= cell_7_3 9)))
(assert
 (or (= cell_8_3 1) (= cell_8_3 2) (= cell_8_3 3) (= cell_8_3 4) (= cell_8_3 5) (= cell_8_3 6) (= cell_8_3 7) (= cell_8_3 8) (= cell_8_3 9)))
(assert
 (or (= cell_9_3 1) (= cell_9_3 2) (= cell_9_3 3) (= cell_9_3 4) (= cell_9_3 5) (= cell_9_3 6) (= cell_9_3 7) (= cell_9_3 8) (= cell_9_3 9)))
(assert
 (let (($x3631 (= cell_1_4 9)))
 (let (($x9854 (= cell_1_4 8)))
 (let (($x3557 (= cell_1_4 7)))
 (let (($x10240 (= cell_1_4 6)))
 (let (($x5139 (= cell_1_4 5)))
 (let (($x2294 (= cell_1_4 4)))
 (let (($x4848 (= cell_1_4 3)))
 (let (($x8376 (= cell_1_4 2)))
 (let (($x9359 (= cell_1_4 1)))
 (or $x9359 $x8376 $x4848 $x2294 $x5139 $x10240 $x3557 $x9854 $x3631)))))))))))
(assert
 (let (($x2747 (= cell_2_4 9)))
 (let (($x2726 (= cell_2_4 8)))
 (let (($x220 (= cell_2_4 7)))
 (let (($x3506 (= cell_2_4 6)))
 (let (($x4669 (= cell_2_4 5)))
 (let (($x4903 (= cell_2_4 4)))
 (let (($x6958 (= cell_2_4 3)))
 (let (($x7091 (= cell_2_4 2)))
 (let (($x7263 (= cell_2_4 1)))
 (or $x7263 $x7091 $x6958 $x4903 $x4669 $x3506 $x220 $x2726 $x2747)))))))))))
(assert
 (let (($x2930 (= cell_3_4 1)))
 (or $x2930 (= cell_3_4 2) (= cell_3_4 3) (= cell_3_4 4) (= cell_3_4 5) (= cell_3_4 6) (= cell_3_4 7) (= cell_3_4 8) (= cell_3_4 9))))
(assert
 (let (($x1233 (= cell_4_4 1)))
 (or $x1233 (= cell_4_4 2) (= cell_4_4 3) (= cell_4_4 4) (= cell_4_4 5) (= cell_4_4 6) (= cell_4_4 7) (= cell_4_4 8) (= cell_4_4 9))))
(assert
 (let (($x3544 (= cell_5_4 1)))
 (or $x3544 (= cell_5_4 2) (= cell_5_4 3) (= cell_5_4 4) (= cell_5_4 5) (= cell_5_4 6) (= cell_5_4 7) (= cell_5_4 8) (= cell_5_4 9))))
(assert
 (let (($x3948 (= cell_6_4 1)))
 (or $x3948 (= cell_6_4 2) (= cell_6_4 3) (= cell_6_4 4) (= cell_6_4 5) (= cell_6_4 6) (= cell_6_4 7) (= cell_6_4 8) (= cell_6_4 9))))
(assert
 (let (($x1064 (= cell_7_4 1)))
 (or $x1064 (= cell_7_4 2) (= cell_7_4 3) (= cell_7_4 4) (= cell_7_4 5) (= cell_7_4 6) (= cell_7_4 7) (= cell_7_4 8) (= cell_7_4 9))))
(assert
 (let (($x2363 (= cell_8_4 1)))
 (or $x2363 (= cell_8_4 2) (= cell_8_4 3) (= cell_8_4 4) (= cell_8_4 5) (= cell_8_4 6) (= cell_8_4 7) (= cell_8_4 8) (= cell_8_4 9))))
(assert
 (let (($x751 (= cell_9_4 1)))
 (or $x751 (= cell_9_4 2) (= cell_9_4 3) (= cell_9_4 4) (= cell_9_4 5) (= cell_9_4 6) (= cell_9_4 7) (= cell_9_4 8) (= cell_9_4 9))))
(assert
 (let (($x88 (= cell_1_5 9)))
 (let (($x3490 (= cell_1_5 8)))
 (let (($x4972 (= cell_1_5 7)))
 (let (($x398 (= cell_1_5 6)))
 (let (($x5669 (= cell_1_5 5)))
 (let (($x8096 (= cell_1_5 4)))
 (let (($x9508 (= cell_1_5 3)))
 (let (($x8494 (= cell_1_5 2)))
 (let (($x2970 (= cell_1_5 1)))
 (or $x2970 $x8494 $x9508 $x8096 $x5669 $x398 $x4972 $x3490 $x88)))))))))))
(assert
 (let (($x4265 (= cell_2_5 9)))
 (let (($x2046 (= cell_2_5 8)))
 (let (($x7583 (= cell_2_5 7)))
 (let (($x3260 (= cell_2_5 6)))
 (let (($x3841 (= cell_2_5 5)))
 (let (($x9510 (= cell_2_5 4)))
 (let (($x4604 (= cell_2_5 3)))
 (let (($x4508 (= cell_2_5 2)))
 (let (($x4370 (= cell_2_5 1)))
 (or $x4370 $x4508 $x4604 $x9510 $x3841 $x3260 $x7583 $x2046 $x4265)))))))))))
(assert
 (let (($x6926 (= cell_3_5 1)))
 (or $x6926 (= cell_3_5 2) (= cell_3_5 3) (= cell_3_5 4) (= cell_3_5 5) (= cell_3_5 6) (= cell_3_5 7) (= cell_3_5 8) (= cell_3_5 9))))
(assert
 (let (($x8731 (= cell_4_5 1)))
 (or $x8731 (= cell_4_5 2) (= cell_4_5 3) (= cell_4_5 4) (= cell_4_5 5) (= cell_4_5 6) (= cell_4_5 7) (= cell_4_5 8) (= cell_4_5 9))))
(assert
 (or (= cell_5_5 1) (= cell_5_5 2) (= cell_5_5 3) (= cell_5_5 4) (= cell_5_5 5) (= cell_5_5 6) (= cell_5_5 7) (= cell_5_5 8) (= cell_5_5 9)))
(assert
 (or (= cell_6_5 1) (= cell_6_5 2) (= cell_6_5 3) (= cell_6_5 4) (= cell_6_5 5) (= cell_6_5 6) (= cell_6_5 7) (= cell_6_5 8) (= cell_6_5 9)))
(assert
 (or (= cell_7_5 1) (= cell_7_5 2) (= cell_7_5 3) (= cell_7_5 4) (= cell_7_5 5) (= cell_7_5 6) (= cell_7_5 7) (= cell_7_5 8) (= cell_7_5 9)))
(assert
 (or (= cell_8_5 1) (= cell_8_5 2) (= cell_8_5 3) (= cell_8_5 4) (= cell_8_5 5) (= cell_8_5 6) (= cell_8_5 7) (= cell_8_5 8) (= cell_8_5 9)))
(assert
 (or (= cell_9_5 1) (= cell_9_5 2) (= cell_9_5 3) (= cell_9_5 4) (= cell_9_5 5) (= cell_9_5 6) (= cell_9_5 7) (= cell_9_5 8) (= cell_9_5 9)))
(assert
 (let (($x8002 (= cell_1_6 9)))
 (let (($x5713 (= cell_1_6 8)))
 (let (($x5434 (= cell_1_6 7)))
 (let (($x1744 (= cell_1_6 6)))
 (let (($x1460 (= cell_1_6 5)))
 (let (($x3568 (= cell_1_6 4)))
 (let (($x10052 (= cell_1_6 3)))
 (let (($x9737 (= cell_1_6 2)))
 (let (($x9015 (= cell_1_6 1)))
 (or $x9015 $x9737 $x10052 $x3568 $x1460 $x1744 $x5434 $x5713 $x8002)))))))))))
(assert
 (let (($x3230 (= cell_2_6 9)))
 (let (($x3027 (= cell_2_6 8)))
 (let (($x3990 (= cell_2_6 7)))
 (let (($x486 (= cell_2_6 6)))
 (let (($x6572 (= cell_2_6 5)))
 (let (($x6873 (= cell_2_6 4)))
 (let (($x10210 (= cell_2_6 3)))
 (let (($x1529 (= cell_2_6 2)))
 (let (($x4980 (= cell_2_6 1)))
 (or $x4980 $x1529 $x10210 $x6873 $x6572 $x486 $x3990 $x3027 $x3230)))))))))))
(assert
 (let (($x7901 (= cell_3_6 1)))
 (or $x7901 (= cell_3_6 2) (= cell_3_6 3) (= cell_3_6 4) (= cell_3_6 5) (= cell_3_6 6) (= cell_3_6 7) (= cell_3_6 8) (= cell_3_6 9))))
(assert
 (let (($x4624 (= cell_4_6 1)))
 (or $x4624 (= cell_4_6 2) (= cell_4_6 3) (= cell_4_6 4) (= cell_4_6 5) (= cell_4_6 6) (= cell_4_6 7) (= cell_4_6 8) (= cell_4_6 9))))
(assert
 (let (($x2132 (= cell_5_6 1)))
 (or $x2132 (= cell_5_6 2) (= cell_5_6 3) (= cell_5_6 4) (= cell_5_6 5) (= cell_5_6 6) (= cell_5_6 7) (= cell_5_6 8) (= cell_5_6 9))))
(assert
 (or (= cell_6_6 1) (= cell_6_6 2) (= cell_6_6 3) (= cell_6_6 4) (= cell_6_6 5) (= cell_6_6 6) (= cell_6_6 7) (= cell_6_6 8) (= cell_6_6 9)))
(assert
 (or (= cell_7_6 1) (= cell_7_6 2) (= cell_7_6 3) (= cell_7_6 4) (= cell_7_6 5) (= cell_7_6 6) (= cell_7_6 7) (= cell_7_6 8) (= cell_7_6 9)))
(assert
 (or (= cell_8_6 1) (= cell_8_6 2) (= cell_8_6 3) (= cell_8_6 4) (= cell_8_6 5) (= cell_8_6 6) (= cell_8_6 7) (= cell_8_6 8) (= cell_8_6 9)))
(assert
 (or (= cell_9_6 1) (= cell_9_6 2) (= cell_9_6 3) (= cell_9_6 4) (= cell_9_6 5) (= cell_9_6 6) (= cell_9_6 7) (= cell_9_6 8) (= cell_9_6 9)))
(assert
 (let (($x2368 (= cell_1_7 9)))
 (let (($x1466 (= cell_1_7 8)))
 (let (($x6990 (= cell_1_7 7)))
 (let (($x5589 (= cell_1_7 6)))
 (let (($x10 (= cell_1_7 5)))
 (let (($x5709 (= cell_1_7 4)))
 (let (($x5599 (= cell_1_7 3)))
 (let (($x7306 (= cell_1_7 2)))
 (let (($x4076 (= cell_1_7 1)))
 (or $x4076 $x7306 $x5599 $x5709 $x10 $x5589 $x6990 $x1466 $x2368)))))))))))
(assert
 (let (($x7563 (= cell_2_7 9)))
 (let (($x945 (= cell_2_7 8)))
 (let (($x5742 (= cell_2_7 7)))
 (let (($x3378 (= cell_2_7 6)))
 (let (($x4929 (= cell_2_7 5)))
 (let (($x1385 (= cell_2_7 4)))
 (let (($x6462 (= cell_2_7 3)))
 (let (($x1346 (= cell_2_7 2)))
 (let (($x3901 (= cell_2_7 1)))
 (or $x3901 $x1346 $x6462 $x1385 $x4929 $x3378 $x5742 $x945 $x7563)))))))))))
(assert
 (let (($x8710 (= cell_3_7 1)))
 (or $x8710 (= cell_3_7 2) (= cell_3_7 3) (= cell_3_7 4) (= cell_3_7 5) (= cell_3_7 6) (= cell_3_7 7) (= cell_3_7 8) (= cell_3_7 9))))
(assert
 (or (= cell_4_7 1) (= cell_4_7 2) (= cell_4_7 3) (= cell_4_7 4) (= cell_4_7 5) (= cell_4_7 6) (= cell_4_7 7) (= cell_4_7 8) (= cell_4_7 9)))
(assert
 (or (= cell_5_7 1) (= cell_5_7 2) (= cell_5_7 3) (= cell_5_7 4) (= cell_5_7 5) (= cell_5_7 6) (= cell_5_7 7) (= cell_5_7 8) (= cell_5_7 9)))
(assert
 (let (($x1669 (= cell_6_7 1)))
 (or $x1669 (= cell_6_7 2) (= cell_6_7 3) (= cell_6_7 4) (= cell_6_7 5) (= cell_6_7 6) (= cell_6_7 7) (= cell_6_7 8) (= cell_6_7 9))))
(assert
 (or (= cell_7_7 1) (= cell_7_7 2) (= cell_7_7 3) (= cell_7_7 4) (= cell_7_7 5) (= cell_7_7 6) (= cell_7_7 7) (= cell_7_7 8) (= cell_7_7 9)))
(assert
 (or (= cell_8_7 1) (= cell_8_7 2) (= cell_8_7 3) (= cell_8_7 4) (= cell_8_7 5) (= cell_8_7 6) (= cell_8_7 7) (= cell_8_7 8) (= cell_8_7 9)))
(assert
 (or (= cell_9_7 1) (= cell_9_7 2) (= cell_9_7 3) (= cell_9_7 4) (= cell_9_7 5) (= cell_9_7 6) (= cell_9_7 7) (= cell_9_7 8) (= cell_9_7 9)))
(assert
 (let (($x5189 (= cell_1_8 9)))
 (let (($x7934 (= cell_1_8 8)))
 (let (($x5341 (= cell_1_8 7)))
 (let (($x7680 (= cell_1_8 6)))
 (let (($x3987 (= cell_1_8 5)))
 (let (($x4647 (= cell_1_8 4)))
 (let (($x5769 (= cell_1_8 3)))
 (let (($x5842 (= cell_1_8 2)))
 (let (($x1431 (= cell_1_8 1)))
 (or $x1431 $x5842 $x5769 $x4647 $x3987 $x7680 $x5341 $x7934 $x5189)))))))))))
(assert
 (let (($x2057 (= cell_2_8 1)))
 (or $x2057 (= cell_2_8 2) (= cell_2_8 3) (= cell_2_8 4) (= cell_2_8 5) (= cell_2_8 6) (= cell_2_8 7) (= cell_2_8 8) (= cell_2_8 9))))
(assert
 (let (($x6922 (= cell_3_8 1)))
 (or $x6922 (= cell_3_8 2) (= cell_3_8 3) (= cell_3_8 4) (= cell_3_8 5) (= cell_3_8 6) (= cell_3_8 7) (= cell_3_8 8) (= cell_3_8 9))))
(assert
 (let (($x1492 (= cell_4_8 1)))
 (or $x1492 (= cell_4_8 2) (= cell_4_8 3) (= cell_4_8 4) (= cell_4_8 5) (= cell_4_8 6) (= cell_4_8 7) (= cell_4_8 8) (= cell_4_8 9))))
(assert
 (let (($x9019 (= cell_5_8 1)))
 (or $x9019 (= cell_5_8 2) (= cell_5_8 3) (= cell_5_8 4) (= cell_5_8 5) (= cell_5_8 6) (= cell_5_8 7) (= cell_5_8 8) (= cell_5_8 9))))
(assert
 (let (($x2993 (= cell_6_8 1)))
 (or $x2993 (= cell_6_8 2) (= cell_6_8 3) (= cell_6_8 4) (= cell_6_8 5) (= cell_6_8 6) (= cell_6_8 7) (= cell_6_8 8) (= cell_6_8 9))))
(assert
 (let (($x4744 (= cell_7_8 1)))
 (or $x4744 (= cell_7_8 2) (= cell_7_8 3) (= cell_7_8 4) (= cell_7_8 5) (= cell_7_8 6) (= cell_7_8 7) (= cell_7_8 8) (= cell_7_8 9))))
(assert
 (let (($x10299 (= cell_8_8 1)))
 (or $x10299 (= cell_8_8 2) (= cell_8_8 3) (= cell_8_8 4) (= cell_8_8 5) (= cell_8_8 6) (= cell_8_8 7) (= cell_8_8 8) (= cell_8_8 9))))
(assert
 (let (($x1301 (= cell_9_8 1)))
 (or $x1301 (= cell_9_8 2) (= cell_9_8 3) (= cell_9_8 4) (= cell_9_8 5) (= cell_9_8 6) (= cell_9_8 7) (= cell_9_8 8) (= cell_9_8 9))))
(assert
 (let (($x237 (= cell_1_9 9)))
 (let (($x4175 (= cell_1_9 8)))
 (let (($x6691 (= cell_1_9 7)))
 (let (($x3403 (= cell_1_9 6)))
 (let (($x4709 (= cell_1_9 5)))
 (let (($x5884 (= cell_1_9 4)))
 (let (($x7095 (= cell_1_9 3)))
 (let (($x9553 (= cell_1_9 2)))
 (let (($x7129 (= cell_1_9 1)))
 (or $x7129 $x9553 $x7095 $x5884 $x4709 $x3403 $x6691 $x4175 $x237)))))))))))
(assert
 (let (($x3903 (= cell_2_9 1)))
 (or $x3903 (= cell_2_9 2) (= cell_2_9 3) (= cell_2_9 4) (= cell_2_9 5) (= cell_2_9 6) (= cell_2_9 7) (= cell_2_9 8) (= cell_2_9 9))))
(assert
 (let (($x5267 (= cell_3_9 1)))
 (or $x5267 (= cell_3_9 2) (= cell_3_9 3) (= cell_3_9 4) (= cell_3_9 5) (= cell_3_9 6) (= cell_3_9 7) (= cell_3_9 8) (= cell_3_9 9))))
(assert
 (or (= cell_4_9 1) (= cell_4_9 2) (= cell_4_9 3) (= cell_4_9 4) (= cell_4_9 5) (= cell_4_9 6) (= cell_4_9 7) (= cell_4_9 8) (= cell_4_9 9)))
(assert
 (or (= cell_5_9 1) (= cell_5_9 2) (= cell_5_9 3) (= cell_5_9 4) (= cell_5_9 5) (= cell_5_9 6) (= cell_5_9 7) (= cell_5_9 8) (= cell_5_9 9)))
(assert
 (or (= cell_6_9 1) (= cell_6_9 2) (= cell_6_9 3) (= cell_6_9 4) (= cell_6_9 5) (= cell_6_9 6) (= cell_6_9 7) (= cell_6_9 8) (= cell_6_9 9)))
(assert
 (or (= cell_7_9 1) (= cell_7_9 2) (= cell_7_9 3) (= cell_7_9 4) (= cell_7_9 5) (= cell_7_9 6) (= cell_7_9 7) (= cell_7_9 8) (= cell_7_9 9)))
(assert
 (let (($x1551 (= cell_8_9 1)))
 (or $x1551 (= cell_8_9 2) (= cell_8_9 3) (= cell_8_9 4) (= cell_8_9 5) (= cell_8_9 6) (= cell_8_9 7) (= cell_8_9 8) (= cell_8_9 9))))
(assert
 (or (= cell_9_9 1) (= cell_9_9 2) (= cell_9_9 3) (= cell_9_9 4) (= cell_9_9 5) (= cell_9_9 6) (= cell_9_9 7) (= cell_9_9 8) (= cell_9_9 9)))
(assert
 (and (distinct cell_1_1 cell_1_2 cell_1_3 cell_1_4 cell_1_5 cell_1_6 cell_1_7 cell_1_8 cell_1_9) true))
(assert
 (and (distinct cell_2_1 cell_2_2 cell_2_3 cell_2_4 cell_2_5 cell_2_6 cell_2_7 cell_2_8 cell_2_9) true))
(assert
 (and (distinct cell_3_1 cell_3_2 cell_3_3 cell_3_4 cell_3_5 cell_3_6 cell_3_7 cell_3_8 cell_3_9) true))
(assert
 (and (distinct cell_4_1 cell_4_2 cell_4_3 cell_4_4 cell_4_5 cell_4_6 cell_4_7 cell_4_8 cell_4_9) true))
(assert
 (and (distinct cell_5_1 cell_5_2 cell_5_3 cell_5_4 cell_5_5 cell_5_6 cell_5_7 cell_5_8 cell_5_9) true))
(assert
 (and (distinct cell_6_1 cell_6_2 cell_6_3 cell_6_4 cell_6_5 cell_6_6 cell_6_7 cell_6_8 cell_6_9) true))
(assert
 (and (distinct cell_7_1 cell_7_2 cell_7_3 cell_7_4 cell_7_5 cell_7_6 cell_7_7 cell_7_8 cell_7_9) true))
(assert
 (and (distinct cell_8_1 cell_8_2 cell_8_3 cell_8_4 cell_8_5 cell_8_6 cell_8_7 cell_8_8 cell_8_9) true))
(assert
 (and (distinct cell_9_1 cell_9_2 cell_9_3 cell_9_4 cell_9_5 cell_9_6 cell_9_7 cell_9_8 cell_9_9) true))
(assert
 (and (distinct cell_1_1 cell_2_1 cell_3_1 cell_4_1 cell_5_1 cell_6_1 cell_7_1 cell_8_1 cell_9_1) true))
(assert
 (and (distinct cell_1_2 cell_2_2 cell_3_2 cell_4_2 cell_5_2 cell_6_2 cell_7_2 cell_8_2 cell_9_2) true))
(assert
 (and (distinct cell_1_3 cell_2_3 cell_3_3 cell_4_3 cell_5_3 cell_6_3 cell_7_3 cell_8_3 cell_9_3) true))
(assert
 (and (distinct cell_1_4 cell_2_4 cell_3_4 cell_4_4 cell_5_4 cell_6_4 cell_7_4 cell_8_4 cell_9_4) true))
(assert
 (and (distinct cell_1_5 cell_2_5 cell_3_5 cell_4_5 cell_5_5 cell_6_5 cell_7_5 cell_8_5 cell_9_5) true))
(assert
 (and (distinct cell_1_6 cell_2_6 cell_3_6 cell_4_6 cell_5_6 cell_6_6 cell_7_6 cell_8_6 cell_9_6) true))
(assert
 (and (distinct cell_1_7 cell_2_7 cell_3_7 cell_4_7 cell_5_7 cell_6_7 cell_7_7 cell_8_7 cell_9_7) true))
(assert
 (and (distinct cell_1_8 cell_2_8 cell_3_8 cell_4_8 cell_5_8 cell_6_8 cell_7_8 cell_8_8 cell_9_8) true))
(assert
 (and (distinct cell_1_9 cell_2_9 cell_3_9 cell_4_9 cell_5_9 cell_6_9 cell_7_9 cell_8_9 cell_9_9) true))
(assert
 (and (distinct cell_1_1 cell_1_2 cell_1_3 cell_2_1 cell_2_2 cell_2_3 cell_3_1 cell_3_2 cell_3_3) true))
(assert
 (and (distinct cell_1_4 cell_1_5 cell_1_6 cell_2_4 cell_2_5 cell_2_6 cell_3_4 cell_3_5 cell_3_6) true))
(assert
 (and (distinct cell_1_7 cell_1_8 cell_1_9 cell_2_7 cell_2_8 cell_2_9 cell_3_7 cell_3_8 cell_3_9) true))
(assert
 (and (distinct cell_4_1 cell_4_2 cell_4_3 cell_5_1 cell_5_2 cell_5_3 cell_6_1 cell_6_2 cell_6_3) true))
(assert
 (and (distinct cell_4_4 cell_4_5 cell_4_6 cell_5_4 cell_5_5 cell_5_6 cell_6_4 cell_6_5 cell_6_6) true))
(assert
 (and (distinct cell_4_7 cell_4_8 cell_4_9 cell_5_7 cell_5_8 cell_5_9 cell_6_7 cell_6_8 cell_6_9) true))
(assert
 (and (distinct cell_7_1 cell_7_2 cell_7_3 cell_8_1 cell_8_2 cell_8_3 cell_9_1 cell_9_2 cell_9_3) true))
(assert
 (and (distinct cell_7_4 cell_7_5 cell_7_6 cell_8_4 cell_8_5 cell_8_6 cell_9_4 cell_9_5 cell_9_6) true))
(assert
 (and (distinct cell_7_7 cell_7_8 cell_7_9 cell_8_7 cell_8_8 cell_8_9 cell_9_7 cell_9_8 cell_9_9) true))
(assert
 (let (($x4455 (and (distinct cell_5_9 cell_6_8 cell_7_7 cell_8_6) true)))
 (let (($x3174 (and (distinct cell_2_9 cell_3_8 cell_4_7 cell_5_6 cell_6_5 cell_7_4 cell_8_3 cell_9_2) true)))
 (let (($x3388 (and (distinct cell_1_8 cell_2_7 cell_3_6 cell_4_5 cell_5_4 cell_6_3 cell_7_2 cell_8_1) true)))
 (let (($x7424 (and (distinct cell_1_5 cell_2_4 cell_3_3 cell_4_2) true)))
 (let (($x5233 (and (distinct cell_5_1 cell_6_2 cell_7_3 cell_8_4) true)))
 (let (($x246 (and (distinct cell_2_1 cell_3_2 cell_4_3 cell_5_4 cell_6_5 cell_7_6 cell_8_7 cell_9_8) true)))
 (let (($x153 (and (distinct cell_1_2 cell_2_3 cell_3_4 cell_4_5 cell_5_6 cell_6_7 cell_7_8 cell_8_9) true)))
 (let (($x7653 (and (distinct cell_1_5 cell_2_6 cell_3_7 cell_4_8) true)))
 (and $x7653 $x153 $x246 $x5233 $x7424 $x3388 $x3174 $x4455))))))))))
(assert
 (= cell_4_6 1))
(check-sat)
